1111110 AB
395 409 423 437 451 465 482 499 516 533 550 567 584 601 618 635 655 674 693 713 733 753 773 792 812 832 852 872 892 915 938 961 984 1007 1030 1053 1075 1097
1111110 BA
485 505 525 545 565 584 603 622 642 662 682 702 722 742 762 782 802 822 842 862 883 902 922 942 955 968 980 992 1004 1016 1038 1060 1090 1120 1150 1180 1210 1240
0000001 AB
395 415 455 495 535 585 635 695 755 815 875 935 985 1035 1065 1095
0000001 BA
485 545 605 665 725 785 845 895 945 975 1005 1035 1075 1125 1185 1245
